SCIP Status        : problem creation / modification
Total Time         :       0.09
  reading          :       0.09
Original Problem   :
  Problem name     : main4.zpl
  Variables        : 8040 (8040 binary, 0 integer, 0 implicit integer, 0 continuous)
  Constraints      : 0 initial, 8240 maximal
  Objective        : minimize, 8040 non-zeros (abs.min = 0.00051, abs.max = 5700)
